&CONTROL
  calculation = 'vc-relax' ,
  restart_mode = 'from_scratch' ,
  wf_collect = .false. ,
  pseudo_dir = '/home/jin.zhang3/Pseudo' ,
  outdir = './temp' ,
  disk_io = 'none' ,
  verbosity = 'default' ,
  tstress = .true. ,
  tprnfor = .true. ,
  nstep = 250 ,
  etot_conv_thr = 1e-06 ,
  forc_conv_thr = 1e-05 ,
/
&SYSTEM
  ibrav = 0 ,
  nosym = .false. ,
  noinv = .false. ,
  nat = 8 ,
  ntyp = 1 ,
  nspin = 1 ,
  occupations = 'smearing' ,
  smearing = 'methfessel-paxton' ,
  degauss = 0.02 ,
  ecutwfc = 80 ,
  ecutrho = 640 ,
/
&ELECTRONS
  diagonalization = 'david' ,
  electron_maxstep = 100 ,
  conv_thr = 1e-12 ,
/
&IONS
  ion_dynamics = 'bfgs' ,
/
&CELL
  cell_dynamics = 'bfgs' ,
  press = 0.0 ,
  press_conv_thr = 0.2D0 ,
  cell_dofree = xfixed ,
/ 
ATOMIC_SPECIES
  C  12.011 C.pbe-n-kjpaw_psl.1.0.0.UPF
K_POINTS {automatic}
   12  12  12  0  0  0
CELL_PARAMETERS (angstrom)
  2.0807095174410386  -2.039911291608862   -2.039911291608862
  2.080709517441039    2.7865706458044306  -0.7466593541955695
  2.080709517441039   -0.7466593541955695   2.7865706458044306
ATOMIC_POSITIONS (crystal)
C     0.000000000         0.000000000         0.000000000
C     0.000000000         0.500000000         0.500000000
C     0.500000000         0.500000000         0.000000000
C     0.500000000         0.000000000         0.500000000
C     0.750000000         0.250000000         0.750000000
C     0.250000000         0.250000000         0.250000000
C     0.250000000         0.750000000         0.750000000
C     0.750000000         0.750000000         0.250000000
