Diamond spacegrop SG2227
   1.00000000000000
  2.0807095174410386  -2.039911291608862   -2.039911291608862
  2.080709517441039    2.7865706458044306  -0.7466593541955695
  2.080709517441039   -0.7466593541955695   2.7865706458044306
     8
Direct
  0.0000000000000000  0.0000000000000000  0.0000000000000000
  0.0000000000000000  0.5000000000000000  0.5000000000000000
  0.5000000000000000  0.0000000000000000  0.5000000000000000
  0.5000000000000000  0.5000000000000000  0.0000000000000000
  0.7500000000000000  0.2500000000000000  0.7500000000000000
  0.2500000000000000  0.2500000000000000  0.2500000000000000
  0.2500000000000000  0.7500000000000000  0.7500000000000000
  0.7500000000000000  0.7500000000000000  0.2500000000000000
