Diamond spacegrop SG2227
   1.00000000000000
     3.5332321072242756    0.0000000000000000    0.0000000000000000
     0.0000000000000000    3.5332321072242756    0.0000000000000000
     0.0000000000000000    0.0000000000000000    3.5332321072242756
     8
Direct
  0.0000000000000000  0.0000000000000000  0.0000000000000000
  0.0000000000000000  0.5000000000000000  0.5000000000000000
  0.5000000000000000  0.0000000000000000  0.5000000000000000
  0.5000000000000000  0.5000000000000000  0.0000000000000000
  0.7500000000000000  0.2500000000000000  0.7500000000000000
  0.2500000000000000  0.2500000000000000  0.2500000000000000
  0.2500000000000000  0.7500000000000000  0.7500000000000000
  0.7500000000000000  0.7500000000000000  0.2500000000000000

